config:eval_tsp="2022-12-07 08:48:08"
config:arch=arch5
config:num_train_worker=6
config:num_sample_worker=2
config:sample_type=khop2
config:root_path=/nvme/samgraph/
config:dataset=com-friendster
config:pipeline=False
config:cache_policy=coll_cache_asymm_link
config:cache_percentage=0.25
config:num_epoch=4
config:batch_size=8000
config:num_hidden=256
config:max_sampling_jobs=1
config:max_copying_jobs=1
config:barriered_epoch=1
config:presample_epoch=2
config:omp_thread_num=6
config:unsupervised=False
config:amp=True
config:rolling=0
config:fanout=[25, 10]
config:lr=0.003
config:dropout=0.5
config:single_gpu=False
config:max_num_step=100000
config:validate_configs=False
config:report_acc=0
config:dataset_path=/nvme/samgraph/com-friendster
config:torch_thread_num=8
config:train_workers=['cuda:0', 'cuda:1', 'cuda:2', 'cuda:3', 'cuda:4', 'cuda:5']
config:sample_workers=['cuda:6', 'cuda:7']
config:num_fanout=2
config:num_layer=2
config:_run_mode=RunMode.FGNN
config:_log_level=warn
config:_profile_level=3
config:_empty_feat=0
config:_arch=5
config:_sample_type=5
config:_cache_policy=13
test_result:init:input_scale_factor=1.1
Set parameter WLSAccessID
Set parameter WLSSecret
Set parameter LicenseID
Set parameter TimeLimit to value 200
Set parameter MIPGap to value 0.05
Set parameter GomoryPasses to value 0
Set parameter Aggregate to value 0
Set parameter LogFile to value "cppsolver.log"
Set parameter Threads to value 12
Academic license - for non-commercial use only - registered to xiaoniu.sxn@sjtu.edu.cn
Gurobi Optimizer version 9.5.2 build v9.5.2rc0 (linux64)
Thread count: 48 physical cores, 96 logical processors, using up to 12 threads
Academic license - for non-commercial use only - registered to xiaoniu.sxn@sjtu.edu.cn
Optimize a model with 115860 rows, 25407 columns and 286548 nonzeros
Model fingerprint: 0x71858bb5
Variable types: 7 continuous, 25400 integer (25400 binary)
Coefficient statistics:
  Matrix range     [3e-04, 7e+02]
  Objective range  [1e+00, 1e+00]
  Bounds range     [1e+00, 1e+00]
  RHS range        [1e+00, 1e+03]
Found heuristic solution: objective 41510.447800
Presolve removed 91445 rows and 0 columns
Presolve time: 0.28s
Presolved: 24415 rows, 25407 columns, 98583 nonzeros
Found heuristic solution: objective 41510.447786
Variable types: 7 continuous, 25400 integer (25400 binary)

Root simplex log...

Iteration    Objective       Primal Inf.    Dual Inf.      Time
   27290    9.9762310e+02   7.262064e+03   0.000000e+00      5s
   45602    1.0147874e+03   6.421340e+03   0.000000e+00     10s
   51080    1.0179605e+03   0.000000e+00   0.000000e+00     13s

Root relaxation: objective 1.017961e+03, 51080 iterations, 12.41 seconds (13.35 work units)

    Nodes    |    Current Node    |     Objective Bounds      |     Work
 Expl Unexpl |  Obj  Depth IntInf | Incumbent    BestBd   Gap | It/Node Time

     0     0 1017.96051    0 16013 41510.4478 1017.96051  97.5%     -   14s
H    0     0                    15563.271502 1017.96051  93.5%     -   14s
H    0     0                    2032.0846388 1017.96051  49.9%     -   14s
H    0     0                    1784.2727482 1017.96051  42.9%     -   24s
H    0     0                    1762.1760836 1017.96051  42.2%     -   26s
     0     0 1017.96051    0 16118 1762.17608 1017.96051  42.2%     -   27s
H    0     0                    1684.1813745 1017.96051  39.6%     -   28s
     0     0 1017.96051    0 16083 1684.18137 1017.96051  39.6%     -   30s
H    0     0                    1557.9172968 1019.22955  34.6%     -   50s
H    0     0                    1348.1381863 1019.22955  24.4%     -   50s
H    0     0                    1186.9330510 1019.22955  14.1%     -   50s
     0     0 1019.22955    0 14964 1186.93305 1019.22955  14.1%     -   51s
H    0     0                    1153.2185598 1019.22955  11.6%     -   51s
     0     0 1019.68694    0 14388 1153.21856 1019.68694  11.6%     -   53s
     0     0 1019.72165    0 14394 1153.21856 1019.72165  11.6%     -   53s
H    0     0                    1127.6945002 1019.73592  9.57%     -   54s
     0     0 1019.73592    0 14313 1127.69450 1019.73592  9.57%     -   55s
     0     0 1019.73592    0 14371 1127.69450 1019.73592  9.57%     -   55s
H    0     0                    1126.0885100 1019.73592  9.44%     -   57s
     0     0 1021.19995    0 13485 1126.08851 1021.19995  9.31%     -   61s
H    0     0                    1083.5478809 1021.19995  5.75%     -   64s
     0     0 1022.02307    0 12806 1083.54788 1022.02307  5.68%     -   66s
     0     0 1022.10801    0 12720 1083.54788 1022.10801  5.67%     -   69s
     0     0 1022.10804    0 12741 1083.54788 1022.10804  5.67%     -   70s
     0     0 1022.83272    0 12691 1083.54788 1022.83272  5.60%     -   87s
H    0     0                    1083.1953614 1022.83272  5.57%     -   89s
     0     0 1024.04200    0 11431 1083.19536 1024.04200  5.46%     -   94s
     0     0 1024.11839    0 11538 1083.19536 1024.11839  5.45%     -   95s
     0     0 1024.12863    0 11585 1083.19536 1024.12863  5.45%     -   95s
     0     0 1024.12880    0 11581 1083.19536 1024.12880  5.45%     -   96s
     0     0 1024.51173    0 12569 1083.19536 1024.51173  5.42%     -  112s
H    0     0                    1073.3516446 1024.51173  4.55%     -  114s

Cutting planes:
  MIR: 127
  Zero half: 8100

Explored 1 nodes (127912 simplex iterations) in 114.69 seconds (95.04 work units)
Thread count was 12 (of 96 available processors)

Solution count 10: 1073.35 1083.2 1083.55 ... 1684.18

Optimal solution found (tolerance 5.00e-02)
Best objective 1.073351644597e+03, best bound 1.024511727675e+03, gap 4.5502%
coll_cache:optimal_local_rate=0.450527,0.454063,0.600663,0.449444,0.592761,0.451131,
coll_cache:optimal_remote_rate=0.547955,0.544419,0.397819,0.549038,0.405721,0.547351,
coll_cache:optimal_cpu_rate=0.00151833,0.00151833,0.00151833,0.00151833,0.00151833,0.00151833,
z=1073.35
test_result:init:feat_nbytes=67182966784
test_result:init:cache_nbytes=16801753088
test_result:init:feat_nbytes=67182966784
test_result:init:cache_nbytes=16792314880
test_result:init:feat_nbytes=67182966784
test_result:init:cache_nbytes=16798586880
test_result:init:feat_nbytes=67182966784
test_result:init:cache_nbytes=16802096128
test_result:init:feat_nbytes=67182966784
test_result:init:cache_nbytes=16787034112
test_result:init:feat_nbytes=67182966784
test_result:init:cache_nbytes=16726149120
test_result:init:cache_nbytes=0
test_result:init:cache_nbytes=0
test_result:init:cache_nbytes=0
test_result:init:cache_nbytes=0
test_result:init:cache_nbytes=0
test_result:init:cache_nbytes=0
[Train  Worker 3/6] Started with PID 78918(Tesla V100-SXM2-32GB)
[Train  Worker 3] run train for 4 epochs with 126 steps
[Train  Worker 3] Avg Epoch Time 0.4999 | Train Total Time(Profiler) 0.2064 | Copy Time 0.2912
[Train  Worker 4/6] Started with PID 78921(Tesla V100-SXM2-32GB)
[Train  Worker 4] run train for 4 epochs with 126 steps
[Train  Worker 4] Avg Epoch Time 0.4999 | Train Total Time(Profiler) 0.2324 | Copy Time 0.2651
[Train  Worker 0/6] Started with PID 78909(Tesla V100-SXM2-32GB)
[Train  Worker 0] run train for 4 epochs with 126 steps
Epoch 00000 | Epoch Time 2.0041 | Total Train Time(Profiler) 1.7015 | Copy Time 0.2997
Epoch 00001 | Epoch Time 0.4976 | Total Train Time(Profiler) 0.2395 | Copy Time 0.2556
Epoch 00002 | Epoch Time 0.4932 | Total Train Time(Profiler) 0.2351 | Copy Time 0.2554
Epoch 00003 | Epoch Time 0.5090 | Total Train Time(Profiler) 0.2398 | Copy Time 0.2663
[Train  Worker 0] Avg Epoch Time 0.4999 | Train Total Time(Profiler) 0.2381 | Copy Time 0.2591
[Train  Worker 1/6] Started with PID 78912(Tesla V100-SXM2-32GB)
[Train  Worker 1] run train for 4 epochs with 126 steps
[Train  Worker 1] Avg Epoch Time 0.4999 | Train Total Time(Profiler) 0.2093 | Copy Time 0.2882
[Train  Worker 5/6] Started with PID 78924(Tesla V100-SXM2-32GB)
[Train  Worker 5] run train for 4 epochs with 126 steps
[Train  Worker 5] Avg Epoch Time 0.4999 | Train Total Time(Profiler) 0.2386 | Copy Time 0.2589
[Train  Worker 2/6] Started with PID 78915(Tesla V100-SXM2-32GB)
[Train  Worker 2] run train for 4 epochs with 126 steps
[Train  Worker 2] Avg Epoch Time 0.4999 | Train Total Time(Profiler) 0.2403 | Copy Time 0.2571
[Sample Worker 1/2] Started with PID 78907(Tesla V100-SXM2-32GB)
[Sample Worker 1] run sample for 4 epochs with 63 steps
[Sample Worker 1] Avg Sample Total Time 0.4440 | Sampler Total Time(Profiler) 0.4433
    [Step(average) Profiler Level 1 E3 S62]
        L1  sample           0.005761 | send           0.001273
        L1  recv             0.000000 | copy           0.000000 | convert time 0.000000 | train  0.000000
        L1  feature nbytes 0.00 Bytes | label nbytes 0.00 Bytes
        L1  id nbytes      0.00 Bytes | graph nbytes 0.00 Bytes
        L1  miss nbytes    0.00 Bytes | remote nbytes 0.00 Bytes
        L1  num nodes         1189157 | num samples     1335703
    [Step(average) Profiler Level 2 E3 S62]
        L2  shuffle     0.000483 | core sample  0.001722 | id remap        0.003440
        L2  graph copy  0.000000 | id copy      0.000000 | cache feat copy 0.000000
        L2  last layer sample time 0.000330 | size 58940.920635
    [Step(average) Profiler Level 3 E3 S62]
        L3  khop sample coo  0.001416 | khop sort coo      0.000000 | khop count edge     0.000042 | khop compact edge 0.000220
        L3  walk sample coo  0.000000 | walk topk total    0.000000 | walk topk step1     0.000000 | walk topk step2   0.000000
        L3  walk topk step3  0.000000 | walk topk step4    0.000000 | walk topk step5     0.000000
        L3  walk topk step6  0.000000 | walk topk step7    0.000000
        L3  remap unique     0.000000 | remap populate     0.002901 | remap mapnode       0.000000 | remap mapedge     0.000539
        L3  cache get_index  0.000000 | cache copy_index   0.000000 | cache extract_miss  0.000000
        L3  cache copy_miss  0.000000 | cache combine_miss 0.000000 | cache combine cache 0.000000 | cache combine remote 0.000000
        L3  label extract  0.000000
    [Init Profiler Level 1]
        L1  init     7.6129 | sampler init    14.5445 | trainer init 0.0000
    [Init Profiler Level 2]
        L2  load ds        10.6217 | init queue           4.4999
        L2  presample       4.4268 | build interal ds     2.6046
        L2  build cache     0.0000
    [Init Profiler Level 3]
        L3  load dataset: mmap     7.6081 | copy         3.0136
        L3  dist queue: alloc      0.0019 | pin          4.4980 | push     0.0000
        L3  presample: init        0.2221
        L3  presample: sample      1.3969 | copy         0.1022
        L3  presample: count       2.2705 | sort         0.1543
        L3  presample: reset       0.0006 | get rank     0.0252
        L3  internal: cuda ctx     2.3230 | cuda stream     0.2759
[Sample Worker 0/2] Started with PID 78906(Tesla V100-SXM2-32GB)
[Sample Worker 0] run sample for 4 epochs with 63 steps
[Sample Worker 0] Avg Sample Total Time 0.4439 | Sampler Total Time(Profiler) 0.4431
test_result:sample_time=0.3630
test_result:get_cache_miss_index_time=0.0000
test_result:enqueue_samples_time=0.0802
test_result:epoch_time:sample_total=0.4439
[CUDA] cuda0: usage: 23.29 GB
[SAM] cuda0 data alloc        : 0.00 Bytes
[SAM] cuda0 workspace         : 2.56 GB
[SAM] cuda0 workspace reserve : 1.27 GB
[SAM] cuda0 total             : 2.56 GB
    [Step(average) Profiler Level 1 E3 S125]
        L1  sample           0.000000 | send           0.000000
        L1  recv             0.002428 | copy           0.012843 | convert time 0.000424 | train  0.010413
        L1  feature nbytes    1.13 GB | label nbytes   62.50 KB
        L1  id nbytes      0.00 Bytes | graph nbytes 0.00 Bytes
        L1  miss nbytes      21.85 MB | remote nbytes  572.25 MB
        L1  num nodes               0 | num samples           0
    [Step(average) Profiler Level 2 E3 S125]
        L2  shuffle     0.000000 | core sample  0.000000 | id remap        0.000000
        L2  graph copy  0.000004 | id copy      0.000000 | cache feat copy 0.010411
        L2  last layer sample time 0.000000 | size 0.000000
    [Step(average) Profiler Level 3 E3 S125]
        L3  khop sample coo  0.000000 | khop sort coo      0.000000 | khop count edge     0.000000 | khop compact edge 0.000000
        L3  walk sample coo  0.000000 | walk topk total    0.000000 | walk topk step1     0.000000 | walk topk step2   0.000000
        L3  walk topk step3  0.000000 | walk topk step4    0.000000 | walk topk step5     0.000000
        L3  walk topk step6  0.000000 | walk topk step7    0.000000
        L3  remap unique     0.000000 | remap populate     0.000000 | remap mapnode       0.000000 | remap mapedge     0.000000
        L3  cache get_index  0.000861 | cache copy_index   0.000000 | cache extract_miss  0.000000
        L3  cache copy_miss  0.000000 | cache combine_miss 0.005904 | cache combine cache 0.001974 | cache combine remote 0.007217
        L3  label extract  0.000347
    [Init Profiler Level 1]
        L1  init     7.6129 | sampler init     0.0000 | trainer init 178.7264
    [Init Profiler Level 2]
        L2  load ds         7.6081 | init queue           4.5532
        L2  presample       0.0000 | build interal ds     2.2034
        L2  build cache   171.9669
    [Init Profiler Level 3]
        L3  load dataset: mmap     7.6081 | copy         0.0000
        L3  dist queue: alloc      0.0019 | pin          4.5513 | push     0.0000
        L3  presample: init        0.0000
        L3  presample: sample      0.0000 | copy         0.0000
        L3  presample: count       0.0000 | sort         0.0000
        L3  presample: reset       0.0000 | get rank     0.0000
        L3  internal: cuda ctx     2.2033 | cuda stream     0.0000
|===========================================================================|
|                  PyTorch CUDA memory summary, device ID 0                 |
|---------------------------------------------------------------------------|
|            CUDA OOMs: 0            |        cudaMalloc retries: 0         |
|===========================================================================|
|        Metric         | Cur Usage  | Peak Usage | Tot Alloc  | Tot Freed  |
|---------------------------------------------------------------------------|
| Allocated memory      |   17948 KB |  738823 KB |  128483 MB |  128466 MB |
|       from large pool |   13095 KB |  737396 KB |  127731 MB |  127719 MB |
|       from small pool |    4853 KB |    6549 KB |     751 MB |     747 MB |
|---------------------------------------------------------------------------|
| Active memory         |   17949 KB |  738823 KB |  128483 MB |  128466 MB |
|       from large pool |   13095 KB |  737396 KB |  127731 MB |  127719 MB |
|       from small pool |    4854 KB |    6549 KB |     751 MB |     747 MB |
|---------------------------------------------------------------------------|
| GPU reserved memory   |  753664 KB |  753664 KB |  753664 KB |       0 B  |
|       from large pool |  745472 KB |  745472 KB |  745472 KB |       0 B  |
|       from small pool |    8192 KB |    8192 KB |    8192 KB |       0 B  |
|---------------------------------------------------------------------------|
| Non-releasable memory |   20963 KB |  654518 KB |  122282 MB |  122261 MB |
|       from large pool |   19673 KB |  652839 KB |  121346 MB |  121327 MB |
|       from small pool |    1290 KB |    3147 KB |     935 MB |     934 MB |
|---------------------------------------------------------------------------|
| Allocations           |      38    |      51    |    9363    |    9325    |
|       from large pool |       3    |      14    |    3696    |    3693    |
|       from small pool |      35    |      39    |    5667    |    5632    |
|---------------------------------------------------------------------------|
| Active allocs         |      39    |      51    |    9363    |    9324    |
|       from large pool |       3    |      14    |    3696    |    3693    |
|       from small pool |      36    |      39    |    5667    |    5631    |
|---------------------------------------------------------------------------|
| GPU reserved segments |      10    |      10    |      10    |       0    |
|       from large pool |       6    |       6    |       6    |       0    |
|       from small pool |       4    |       4    |       4    |       0    |
|---------------------------------------------------------------------------|
| Non-releasable allocs |      14    |      21    |    4215    |    4201    |
|       from large pool |       3    |       8    |    2163    |    2160    |
|       from small pool |      11    |      15    |    2052    |    2041    |
|---------------------------------------------------------------------------|
| Oversize allocations  |       0    |       0    |       0    |       0    |
|---------------------------------------------------------------------------|
| Oversize GPU segments |       0    |       0    |       0    |       0    |
|===========================================================================|

test_result:epoch_time:copy_time=0.2591
test_result:convert_time=0.0094
test_result:train_time=0.2288
test_result:epoch_time:train_total=0.2381
test_result:cache_percentage=0.2500
test_result:cache_hit_rate=1.0000
test_result:run_time=5.3038
